3914729412838195737504,7,1,2,08,10,1,2,010,5,1,2,015,5,1,2,014,9,1,2,08,7,1,2,012,14,1,2,011,15,1,2,011,12,1,2,04,15,1,2,04,3,1,2,05,7,1,2,08,4,1,2,010,14,1,2,011,7,1,2,012,10,1,2,013,5,1,2,05,11,1,2,011,12,1,2,014,7,1,2,015,10,1,2,013,2,1,2,04,3,1,2,08,10,1,2,02,7,1,2,03,6,1,2,03,15,1,2,011,7,1,2,07,7,1,2,05,15,1,2,07,3,1,2,014,14,1,2,06,12,1,2,04,12,1,2,02,4,1,2,014,1,1,2,09,1,1,2,015,15,1,2,015,6,1,2,04,13,1,2,014,5,1,2,05,11,1,2,014,11,1,2,03,5,1,2,06,6,1,2,03,14,1,2,014,12,1,2,011,8,1,2,015,12,1,2,014,15,1,2,0